SimulationType                MonteCarlo
NumberOfCycles                100000
NumberOfInitializationCycles  100000
PrintEvery                    1000
RestartFile                   no

Movies                        yes
WriteMoviesEvery              1000

CutOff                        12.0
Forcefield                    AmirjalayerSchmidFixed
DielectricConstantOfTheMedium 1.5
ChargeMethod                  Ewald
EwaldPrecision                1e-6

Framework 0
FrameworkName IRMOF-1
UnitCells 1 1 1
HeliumVoidFraction 1.0

UseTabularGrid                no
NumberOfGrids                 2
GridTypes                     C_benz H_benz
SpacingVDWGrid                0.1
SpacingCoulombGrid            0.1

ExternalTemperature 323.0
ExternalPressure 100000.0

Component 0 MoleculeName             benzene-rigid
            MoleculeDefinition       MM3
            FugacityCoefficient      1.0
            TranslationProbability   0.5
            RotationProbability      0.5
            ReinsertionProbability   0.5
            SwapProbability          1.0
            CreateNumberOfMolecules  0
